db/inputs/765917272743411701366572771823913008.smt2
(set-logic QF_FP)
(declare-const x0 (_ FloatingPoint 11 53))
(declare-const x1 (_ FloatingPoint 11 53))
(declare-const x2 (_ FloatingPoint 11 53))
(declare-const x3 (_ FloatingPoint 11 53))
(declare-const x4 (_ FloatingPoint 11 53))
(declare-const x5 (_ FloatingPoint 11 53))
(declare-const x6 (_ FloatingPoint 11 53))
(declare-const x7 (_ FloatingPoint 11 53))
(declare-const x8 (_ FloatingPoint 11 53))
(declare-const x9 (_ FloatingPoint 11 53))
(declare-const x10 (_ FloatingPoint 11 53))
(declare-const x11 (_ FloatingPoint 11 53))
(assert (fp.gt (fp.sub RNE x3 x10) (fp.mul RNE x11 x2)))
(assert (fp.geq (fp.add RNE x4 x10) (fp.sub RNE x8 x4)))
(assert (fp.leq (fp.neg x1) (fp.add RNE x5 x4)))
(assert (fp.leq (fp.div RNE x0 x3) (fp.neg x10)))
(assert (fp.geq (fp.div RNE x1 x4) (fp.add RNE x10 x7)))
(assert (fp.lt (fp.add RNE x3 x5) (fp.neg x0)))
(assert (fp.leq (fp.mul RNE x9 x3) (fp.mul RNE x11 x0)))
(assert (fp.gt (fp.sub RNE x11 x2) (fp.neg x2)))
(assert (fp.eq (fp.sub RNE x5 x4) (fp.mul RNE x0 x9)))
(check-sat)
