db/data/765917272743411701366572771823913008.z3.out
sat
-------------------
143.199105545
